
Gurobi 11.0.3 (linux64, gurobi_cl) logging started Mon Sep  1 11:29:06 2025

Set parameter Username
Set parameter LogFile to value "gurobi.log"
Using license file /home/nischayvagarwal/gurobi.lic
Academic license - for non-commercial use only - expires 2026-09-01
